presolving:
(round 1, fast)       68716 del vars, 99683 del conss, 0 add conss, 0 chg bounds, 204038 chg sides, 204036 chg coeffs, 0 upgd conss, 0 impls, 80923 clqs
(round 2, exhaustive) 68716 del vars, 113750 del conss, 0 add conss, 20 chg bounds, 204063 chg sides, 204061 chg coeffs, 0 upgd conss, 0 impls, 80923 clqs
(round 3, exhaustive) 68716 del vars, 113752 del conss, 0 add conss, 48 chg bounds, 204129 chg sides, 204127 chg coeffs, 121259 upgd conss, 0 impls, 80923 clqs
(round 4, exhaustive) 68731 del vars, 113774 del conss, 0 add conss, 48 chg bounds, 204344 chg sides, 204342 chg coeffs, 121259 upgd conss, 30987 impls, 80907 clqs
   (21.8s) probing: 1000/33311 (3.0%) - 0 fixings, 0 aggregations, 22748 implications, 0 bound changes
   (21.9s) probing: 1001/33311 (3.0%) - 0 fixings, 0 aggregations, 22767 implications, 0 bound changes
   (21.9s) probing aborted: 1000/1000 successive useless probings
   Deactivated symmetry handling methods, since SCIP was built without symmetry detector (SYM=none).
presolving (5 rounds: 5 fast, 4 medium, 4 exhaustive):
 68731 deleted vars, 113781 deleted constraints, 0 added constraints, 79 tightened bounds, 0 added holes, 204416 changed sides, 204411 changed coefficients
 33377 implications, 101284 cliques
presolved problem has 123611 variables (33311 bin, 0 int, 0 impl, 90300 cont) and 294296 constraints
  30980 constraints of type <varbound>
  80907 constraints of type <setppc>
 173036 constraints of type <linear>
   9373 constraints of type <logicor>
transformed objective value is always integral (scale: 1)
Presolving Time: 22.14

 time | node  | left  |LP iter|LP it/n|mem/heur|mdpt |vars |cons |rows |cuts |sepa|confs|strbr|  dualbound   | primalbound  |  gap   | compl. 
t22.9s|     1 |     0 |     0 |     - | trivial|   0 | 123k| 294k|   0 |   0 |  0 |   0 |   0 |-4.026389e+06 | 4.062169e+06 |    Inf | unknown
 65.0s|     1 |     0 | 25311 |     - |  1287M |   0 | 123k| 294k| 294k|   0 |  0 |   1 |   0 | 6.705727e+05 | 4.062169e+06 | 505.78%| unknown
 74.6s|     1 |     0 | 26581 |     - |  1328M |   0 | 123k| 294k| 294k|   4 |  1 |   3 |   0 | 8.579960e+05 | 4.062169e+06 | 373.45%| unknown
 83.4s|     1 |     0 | 28171 |     - |  1356M |   0 | 123k| 294k| 294k|  20 |  2 |   5 |   0 | 1.001147e+06 | 4.062169e+06 | 305.75%| unknown
 92.0s|     1 |     0 | 29852 |     - |  1385M |   0 | 123k| 294k| 294k|  55 |  3 |   6 |   0 | 1.110901e+06 | 4.062169e+06 | 265.66%| unknown
  102s|     1 |     0 | 32620 |     - |  1414M |   0 | 123k| 294k| 294k|  77 |  4 |   9 |   0 | 1.159065e+06 | 4.062169e+06 | 250.47%| unknown
  110s|     1 |     0 | 34452 |     - |  1442M |   0 | 123k| 294k| 294k| 115 |  5 |  10 |   0 | 1.219706e+06 | 4.062169e+06 | 233.05%| unknown
  120s|     1 |     0 | 37993 |     - |  1471M |   0 | 123k| 294k| 294k| 134 |  6 |  12 |   0 | 1.254542e+06 | 4.062169e+06 | 223.80%| unknown
  130s|     1 |     0 | 41220 |     - |  1500M |   0 | 123k| 294k| 294k| 153 |  7 |  15 |   0 | 1.281002e+06 | 4.062169e+06 | 217.11%| unknown
  138s|     1 |     0 | 43336 |     - |  1529M |   0 | 123k| 294k| 294k| 162 |  8 |  18 |   0 | 1.293977e+06 | 4.062169e+06 | 213.93%| unknown
r 138s|     1 |     0 | 43336 |     - |shifting|   0 | 123k| 294k| 294k| 162 |  8 |  20 |   0 | 1.293977e+06 | 3.944189e+06 | 204.81%| unknown
  146s|     1 |     0 | 45851 |     - |  1557M |   0 | 123k| 294k| 294k| 174 |  9 |  20 |   0 | 1.303890e+06 | 3.944189e+06 | 202.49%| unknown
i 148s|     1 |     0 | 50078 |     - |  oneopt|   0 | 123k| 294k| 294k| 174 |  9 |  20 |   0 | 1.303890e+06 | 3.314948e+06 | 154.24%| unknown
  156s|     1 |     0 | 51059 |     - |  1595M |   0 | 123k| 294k| 294k| 176 | 10 |  22 |   0 | 1.305330e+06 | 3.314948e+06 | 153.95%| unknown
  162s|     1 |     0 | 52132 |     - |  1623M |   0 | 123k| 294k| 294k| 180 | 11 |  24 |   0 | 1.305965e+06 | 3.314948e+06 | 153.83%| unknown
 time | node  | left  |LP iter|LP it/n|mem/heur|mdpt |vars |cons |rows |cuts |sepa|confs|strbr|  dualbound   | primalbound  |  gap   | compl. 
r 166s|     1 |     0 | 52132 |     - |ziroundi|   0 | 123k| 294k| 294k| 180 | 13 |  24 |   0 | 1.305965e+06 | 1.305965e+06 |   0.00%| unknown
  166s|     1 |     0 | 52132 |     - |  1652M |   0 | 123k| 294k| 294k| 180 | 13 |  24 |   0 | 1.305965e+06 | 1.305965e+06 |   0.00%| unknown

SCIP Status        : problem is solved [optimal solution found]
Solving Time (sec) : 166.09
Solving Nodes      : 1
Primal Bound       : +1.30596500000000e+06 (4 solutions)
Dual Bound         : +1.30596500000000e+06
Gap                : 0.00 %
Root classes: {'24'}
Status: OPTIMAL
